
  27    0


   0  14 2 3 4 5 7 8 9 10 11 12 13 24 25 26 
   7   5 22 21 19 16 6 
   2   4 20 18 15 14 
   6   4 22 21 20 17 
   7   4 17 16 15 14 
   6   2 18 14 
  10   2 17 16 
   1   2 15 14 
   2   1 14 
   5   1 23 
   2   1 19 
   7   1 16 
  10   1 15 
   2   1 27
   6   1 27
   4   1 27
   8   1 27
   4   1 27
   4   1 27
   4   1 27
   8   1 27
   2   1 27
   5   1 27
   1   1 27
   1   1 27
  10   1 27
   0   0 
